 # Version information for this restart file 
 # current date 2020-11-10 15:36:24.509
 # current working dir /lustre/share/tmp/samples/cp2k
 # Program compiled at                              Mon Sep 28 11:32:36 CST 2020
 # Program compiled on                                     cas607.pi.sjtu.edu.cn
 # Program compiled for                            linux-centos7-cascadelake-gcc
 # Source code revision number                                       git:e635599
 &GLOBAL
   PROJECT_NAME ar108
   RUN_TYPE  MD
 &END GLOBAL
 &MOTION
   &MD
     ENSEMBLE  NVE
     STEPS  100
     TIMESTEP     4.9999999999999991E+00
     STEP_START_VAL  80
     TIME_START_VAL     4.0000000000000028E+02
     ECONS_START_VAL    -1.6331454346504903E-01
     TEMPERATURE     8.5000000000000000E+01
     &AVERAGES  T
       &RESTART_AVERAGES
         ITIMES_START  1
         AVECPU     2.0115709191188209E+00
         AVEHUGONIOT     0.0000000000000000E+00
         AVETEMP_BARO     0.0000000000000000E+00
         AVEPOT    -2.0852844678730467E-01
         AVEKIN     4.5211664761104067E-02
         AVETEMP     8.8951386423947625E+01
         AVEKIN_QM     0.0000000000000000E+00
         AVETEMP_QM     0.0000000000000000E+00
         AVEVOL     3.4087613522108550E+04
         AVECELL_A     3.2423920988051862E+01
         AVECELL_B     3.2423920988051862E+01
         AVECELL_C     3.2423920988051862E+01
         AVEALPHA     9.0000000000000000E+01
         AVEBETA     9.0000000000000000E+01
         AVEGAMMA     9.0000000000000000E+01
         AVE_ECONS    -6.5232132782203174E-03
         AVE_PRESS     0.0000000000000000E+00
         AVE_PXX     0.0000000000000000E+00
       &END RESTART_AVERAGES
     &END AVERAGES
   &END MD
 &END MOTION
 &FORCE_EVAL
   METHOD  FIST
   &MM
     &FORCEFIELD
       &NONBONDED
         &LENNARD-JONES
           ATOMS Ar Ar
           EPSILON     1.1980000000000000E+02
           SIGMA     3.4049999999999998E+00
           RCUT     8.4000000000000004E+00
         &END LENNARD-JONES
       &END NONBONDED
       &CHARGE
         ATOM Ar
         CHARGE     0.0000000000000000E+00
       &END CHARGE
     &END FORCEFIELD
     &POISSON
       &EWALD
         EWALD_TYPE  NONE
       &END EWALD
     &END POISSON
   &END MM
   &SUBSYS
     &CELL
       A     1.7158000000000001E+01    0.0000000000000000E+00    0.0000000000000000E+00
       B     0.0000000000000000E+00    1.7158000000000001E+01    0.0000000000000000E+00
       C     0.0000000000000000E+00    0.0000000000000000E+00    1.7158000000000001E+01
       MULTIPLE_UNIT_CELL  1 1 1
     &END CELL
     &COORD
Ar   -8.5749972936648682E+00   -1.5547937600254842E+01    2.3885988196506305E+00
Ar    1.1049229878333509E+00    9.4346255583601319E+00    1.1123455595480461E+01
Ar    1.1586122828762303E+01   -7.5677501435926953E+00   -1.0716151880764599E+01
Ar   -1.2388505057477451E+01   -3.3136907476805941E+00    4.4063744231915551E+00
Ar   -1.3145426844682544E+00   -7.3430736975726552E-01    1.3531861842365190E+01
Ar    8.4173900826810506E+00   -2.8286687876104057E+00   -4.1825569736026802E+00
Ar    8.6035411402648183E+00    3.6265948530929184E+00    5.7620271564247227E+00
Ar   -3.8687508405268116E+00   -1.0032697122516081E+01   -6.9945114168382885E+00
Ar   -3.5354244932491437E+00   -1.5619354248381178E+01    1.5817626890420929E+01
Ar    9.4280278464160538E+00   -1.6686277630528853E+01   -5.7206726043826315E+00
Ar    4.8756426724719609E-01   -4.1074857973329681E+00    1.2841734536419398E+01
Ar    1.5624171155857594E+01   -8.2199293298058969E+00    1.8823048055902813E+00
Ar   -4.7776832241099214E+00   -2.3511839653457343E+00   -9.3134859540685089E-01
Ar   -4.2114395484485651E-01   -1.8908414301941761E+00   -7.0319890876215547E+00
Ar    7.9693749396124325E+00   -5.7835861650773630E+00   -1.2228294758617212E+01
Ar   -5.0080809618892657E+00    7.5166820971643900E-01    1.6823580773692872E+00
Ar   -1.1983632292074136E+01    3.2168377038597931E+00    3.7114529855715750E+00
Ar    1.7125088974532858E+01   -7.2184534680036165E+00   -1.2021579503722397E+00
Ar   -1.9925135558491551E+01   -5.7847688941364499E+00    4.8057160444030584E+00
Ar    1.5226606703014467E+01   -1.3825912545601919E+00   -1.6191485406274623E+01
Ar    8.7413097750808824E+00   -8.3820560091003156E+00   -4.1339180038546441E+00
Ar    1.1871059810204518E+01   -1.6382470034254066E+00    1.2950614672840995E+01
Ar   -2.5464863754787131E-01   -1.1534464943205061E+01    2.0023116439742751E+01
Ar    2.1426842437940983E+00    6.1109562891164462E+00   -1.1446343152164561E+01
Ar   -1.4429071246186478E+01    8.9512088484080348E+00    7.7505500625519357E+00
Ar   -1.0054299646877581E+01    6.5054163869111870E+00   -1.5383210746960787E+01
Ar   -3.1594372459775473E+00   -2.1389743397175319E+01    1.1444275277563699E+01
Ar   -1.8154918155428245E+01   -1.1315481264732455E+01   -5.0058372766915369E+00
Ar    4.9336374122687916E+00   -6.9763770606498809E+00   -6.6007165810448276E+00
Ar    3.2614774415773939E+00   -1.0442057338320707E+01    2.1530068755085034E+00
Ar   -1.6333962743018851E+01   -4.8881085265041273E+00    8.8565438155390304E+00
Ar   -6.2878721497152981E+00    4.8201003779958098E+00    2.9896236777101413E+00
Ar    6.5443346028037812E+00    2.7431148821494798E+01    1.5336039863937492E+01
Ar   -2.6832860275592458E+00    2.2844526850237695E+01   -1.6802647987547619E+01
Ar   -4.0983472261272285E+00    9.3968806972647947E+00    1.6312012169937706E+01
Ar   -7.6242011028782573E+00   -9.5900749002130325E+00   -2.9480222441960141E+01
Ar    4.4905395857188568E-01    1.3644757743913983E+01   -9.2130717084288705E-01
Ar   -6.1933584290154959E+00   -5.1882445753305744E+00   -2.0939055607822830E+01
Ar    2.3086062086532564E+01    6.5086708488560001E+00   -1.9512123253198146E+00
Ar    1.9800536754384446E+01   -1.0188493814238825E+01   -3.6012504797368114E+00
Ar   -5.4423039508556836E-01    6.8296154331467651E+00    8.7195949410012279E+00
Ar    5.0682360095293557E+00    1.1953242236618856E-01    6.8470127026965855E-01
Ar   -3.3998321490741437E+00    3.5457215520893368E+00    2.6001011965159094E+01
Ar   -3.1582134039903870E-01    2.0220093373901520E+01   -2.9456041261528751E+00
Ar    2.5688002225750153E+00    4.5013281323037507E-01    9.9634174955826147E+00
Ar    3.8543405137725841E+00   -3.1302421050666847E+00   -6.6206763786011598E+00
Ar   -5.2653491041900109E+00   -6.7747678946729435E+00   -6.7195153625482762E+00
Ar   -2.2771458773876333E+01   -2.8536910201567839E+01    7.1624352850649000E+00
Ar    3.1110137997102822E+00    2.8224682998845321E+00   -1.0153259069782745E+00
Ar    1.5542437200045349E+01    2.7597598280624172E+00    1.8650795798385036E+00
Ar    1.9992326001526973E+01    1.6461207558509436E+01    1.3635148086280644E+01
Ar   -2.8347385079573474E+01    3.0011846178218451E+00   -8.5528189882196557E+00
Ar   -6.3844859914126166E+00   -1.6187357383304708E+01   -9.1107254582471437E+00
Ar    1.0006492707783829E+01    1.6596806504241592E+01    5.0815348485007927E+00
Ar   -7.7054114935485503E+00    6.3127715213997071E+00   -1.6203231519358998E+00
Ar   -1.2102397205585088E+01   -1.0396946611941173E+01   -6.2097864379069154E+00
Ar   -7.8242227250745273E+00    1.3084682840103625E+01   -2.8242062502320242E-01
Ar   -2.4991326436941311E+01    3.9123516291085294E+00   -7.9586057974048110E+00
Ar    2.4095661091889431E+00   -1.2801810104428590E+01   -7.6611038908803106E+00
Ar   -1.3854455758343748E+01    1.1481313842405459E+01   -2.9329774013348615E+00
Ar    1.2846867212374512E+01    5.8463708313068459E+00   -2.9103413914502019E+00
Ar   -1.3580933419876350E+01    1.5528769489974117E+01    7.2533043081915674E+00
Ar   -3.9816788447325568E+00   -1.9259980429961622E+01    2.1292278015914725E+01
Ar   -8.0232266580402349E+00    1.6902104889025097E+01   -1.7520074847390582E+01
Ar    2.8785657349901783E-01    1.0021876789858325E+01    2.2757024205585154E+01
Ar   -2.5937086001760994E+00   -8.0749293366598458E+00   -2.1633170520431349E+01
Ar   -6.1671559906702544E+00   -5.0785617603366378E+00    2.4530257190587981E+00
Ar   -3.6635713491568498E+00   -1.4637566697796707E+01   -4.7981420468792466E+00
Ar   -2.8089435583566313E+01    3.3162109219574426E-01   -3.1109891370663583E+00
Ar   -2.2870416130902584E+00    7.5535233805345010E+00    5.0597148039664628E+00
Ar   -8.9907261281185615E+00   -6.0906076912505132E+00   -8.5042320058607608E+00
Ar   -1.1939955901037067E+01   -2.8210801638190466E+00   -1.6006904586322068E+00
Ar    2.2795410967397494E+01    1.1414375878530670E+01    1.7068530916346085E+00
Ar    6.1890337152475814E+00   -3.1109348224400601E-01   -6.9568722022596550E+00
Ar    3.2003804488683114E+00   -8.2958832379154046E+00   -5.7123290377363878E-01
Ar    5.0719517039792672E-01    1.7813434084461935E+01   -1.7794167011556130E+01
Ar    2.1159160051806918E+01    1.0439886465068666E+01   -1.2511691505800085E+01
Ar    6.9391275752198345E-01    5.8396975332380725E+00    1.6688754045681488E+01
Ar   -6.6222421171386676E+00    6.1790227991888234E+00   -2.2417753174771256E+01
Ar   -7.0344353952475058E-01    1.8006108008777669E+01    7.5719318145213075E+00
Ar    1.5235659952402601E+01    9.8886254725201486E+00   -7.9993180022397450E+00
Ar   -6.8992259433072807E+00   -1.4702824684538113E+01    1.4924681951822047E+01
Ar   -2.7118086644804063E+00   -4.9563363745539295E+00   -2.3889877688215218E+00
Ar    4.6275290326543503E+00   -2.2112176231108801E+01    7.7055353795812387E+00
Ar   -9.6269415294304448E+00   -2.4561153089127976E+00    2.4471686345844428E+00
Ar    6.4056653381909952E+00    2.2506913293750624E-01    5.4989995725945979E+00
Ar    1.2097112784666269E+01    8.9339685239332063E+00    2.6447947816249435E+00
Ar   -1.4281081437036368E+01   -4.6636450447283145E-01   -1.3438522377536120E+01
Ar    1.4963754720179313E+01   -2.8801742933907772E+00    2.4435245763575494E+01
Ar   -3.5151518549475442E+00   -2.7104487842206326E-01   -7.1120097770568487E+00
Ar    6.9771081241135882E+00    3.2320105432120481E+00   -4.4948634694187140E-01
Ar   -7.9094455371604921E-01   -1.7076739252164426E+01   -1.3146849850864681E+01
Ar   -9.3056155718764266E+00   -9.9666399589511130E+00   -8.9696224563127291E+00
Ar   -6.2533762028639686E+00   -4.1827009364934558E+00   -1.0862678280123777E+01
Ar    9.2865573446949856E-01    1.3814006929692338E+01    5.4215325038289270E+00
Ar    8.8417018182090956E+00    9.4267158951428733E+00    1.0745969430377045E+00
Ar   -6.2187998652494976E+00   -1.9926589100646360E+01   -7.6117989242664716E+00
Ar   -5.5899672872976769E-01    1.9915865707291236E+01    1.0549166512173215E+01
Ar    7.7149279672878226E+00   -2.6561440316253364E+00    7.3590573085891835E+00
Ar    1.4335593013359967E+01    1.2386752096099155E+01    1.2668900261378027E+00
Ar   -4.6515930366004792E+00    1.9191271358508043E+01   -1.2173583178364098E+01
Ar    1.9733635537732681E+00   -5.9348611526750341E+00    1.8985190756254116E+00
Ar    1.9049277223463207E+01    2.5568147226191908E+00    2.4258941990058389E+00
Ar    5.2086894402111295E+00   -1.0218088185720330E+01    5.5954406209071674E+00
Ar    4.4537092676592618E+00    3.5412092445766405E+00   -4.4539068472964018E+00
Ar    2.7711630139214636E+00    2.4563714871812197E+00    6.3460838477064252E+00
Ar    2.4964215565639307E+01    4.3693493640376557E+00    1.2934274899496579E+01
Ar   -1.1498513219278348E+00    4.1511004022634355E+00    5.8381448867399683E+00
     &END COORD
     &VELOCITY
          -6.4154707981355991E-05    5.9463201030161440E-05    3.8072298658778886E-06
          -1.1190799303858621E-04    4.5280760590207597E-05    2.7142857129649279E-06
          -3.5307820247593296E-07   -6.1534987131183852E-05   -5.1322023409822204E-05
           2.5401239607193746E-06    1.4176400356870963E-05   -1.1162122187048830E-05
          -1.3238223768682560E-05   -6.5926855221933113E-05    5.6303067164811974E-05
          -1.1152870027411986E-05    7.1455286620483957E-06   -3.7279511067511864E-05
          -6.2677506261550822E-06   -5.8331099195145087E-05   -5.3588532448512007E-05
           7.8682019944049264E-05   -9.4831017908281466E-05   -6.1478542608539179E-05
           1.3924186664675096E-04   -2.6463813735968789E-05    1.6091262887675195E-04
          -1.0030707270203623E-04   -2.7222700912498534E-05   -4.3378734304854678E-05
          -1.7707927602231905E-05   -6.8215044234245332E-06    8.3967487816062980E-06
           9.2311975487263426E-05   -1.2573749603575877E-05   -1.6579512674455902E-04
          -6.7252929051839931E-06    2.8675155348097720E-05   -5.1837207761567653E-05
          -2.1551737896651138E-05   -8.7091039645566801E-05    4.1635623400244712E-05
           2.4646994471542794E-05   -1.2442082498587449E-04    9.5661695933900383E-05
          -6.4945652358830091E-05   -3.8548746835431742E-06   -1.4762167280938596E-04
           4.4507877919595012E-06    5.2790445775908904E-05   -7.8823171997333924E-05
           3.4578816001847364E-05    3.1744771912171863E-05   -5.6309550576661295E-05
           2.6928083662591060E-05    7.8065830642128910E-06   -2.7912963475611439E-06
           1.7292903240253641E-04    3.9757012934771492E-05    1.8324023367027896E-05
           3.2668792928783024E-05    7.5947083584948001E-05    5.3396744409307005E-05
           6.6372371056943127E-05    1.6602601317220102E-05    5.5478242186417344E-05
          -1.1710009728615894E-05    2.2855542975448688E-05    2.7596964348709758E-05
          -2.7117196927255066E-05    5.9995195845686308E-06   -4.2628613690999500E-05
          -3.7082872628967744E-05    5.2464335926933686E-07    8.3279678161579302E-05
          -6.2449222205648248E-05   -7.6419446183220960E-05   -6.6369602548132186E-05
          -3.3621760832752739E-05    1.4476532015323307E-04    4.3440749982455118E-05
          -5.5917488948138976E-05   -9.8635757915164474E-05   -2.3400010326872779E-05
           1.5640954392810939E-05    2.4034327638403130E-05   -4.9702176832638064E-05
           6.7928438433580976E-05   -4.3702579968126404E-05   -8.0883457764080864E-05
          -2.9330455848861624E-05   -4.7766599539873757E-05    9.4749816647795809E-07
          -4.4112450436495320E-05    5.2486429830593466E-05    1.4073079612024718E-05
          -4.1305942581255139E-05   -5.6811579572342879E-05    4.3152506160816341E-06
           2.2576820939188687E-05    2.6893068225144486E-05    6.3020071282167577E-05
          -8.8953134443576836E-05   -5.5518242554509470E-05    3.5174139379623354E-05
          -4.9335845765342267E-06    3.5206814706426123E-05    5.1302238957405855E-05
           8.9404740342582229E-05   -1.2287378488861516E-04   -3.5145978759430284E-05
          -6.6929101553380772E-05   -5.3913110739531996E-05   -1.2499910847276361E-04
          -7.0967492462625353E-05   -7.3889201658830139E-06    9.1321640399000870E-06
           2.7421809466023352E-05   -2.0572435955415850E-05   -2.7796746980705013E-06
          -4.7648273184941996E-05   -8.7782088186396290E-05   -2.5600574489996362E-05
          -1.1855335035299301E-04    9.5008810958357605E-05   -7.2935149251180485E-05
           2.0187125406144475E-05   -4.0762069187556218E-05    1.4451212508388508E-04
          -2.9911375745455226E-05    5.7181336478728489E-06   -8.6631861591062782E-05
           3.8903672640224590E-05    6.3035108518809507E-05    2.4905231213651873E-06
           7.1089316479173336E-05    8.8237700060892639E-07    1.5465827167533537E-04
           2.5889301583846694E-05    1.2385512057234473E-05   -1.7779266400899059E-05
           8.5052102106253897E-05   -7.1610794967993886E-05   -5.6967794822102108E-05
          -7.8141058636360737E-05    3.8071038726389962E-05   -5.2099921002133435E-05
           2.9413319994624061E-05   -1.1939599512682973E-04   -6.3942759945932374E-05
           1.3574354249771609E-04   -2.3322812631344843E-05    5.7229640659102650E-05
          -5.3159024597951440E-05    1.4474031903464389E-04    4.0930941869678024E-05
          -1.3081159749002048E-04   -6.4930284184163279E-05    5.4899772963313369E-05
          -5.0377292008757814E-05   -2.6990782026155927E-05   -7.6057961782551069E-05
           2.5827751970014233E-05   -1.8615755837519064E-06   -6.9454259746559740E-05
           7.1264459530784424E-05    3.0522482447398617E-05   -7.3043142934363149E-06
           5.7657247361313465E-06    6.7576409998963387E-05    1.3084871045370203E-04
           1.6112717352955477E-05   -3.7172451765834901E-05    2.1882286452181709E-05
           2.9003924806906572E-06    7.1722751793109322E-05   -4.0888554631977863E-05
          -3.8054190709624354E-05   -1.4737867294482856E-04    7.6472782322539143E-05
          -3.1639687716820760E-05    1.0861015732185623E-04    9.1020270618396266E-06
          -9.5705236309532319E-05    5.1986777782623402E-05    3.3101984433360086E-05
          -5.0797048780736435E-06    1.5557338969873604E-05   -2.1022061872572573E-05
           2.8934650780827554E-05    3.5492164188399074E-05    4.4502970042210906E-05
          -2.1850014237352558E-05    5.4454238002107989E-05    1.2623795871984276E-04
           7.9716055985948198E-05    8.9345211127151805E-05   -5.3328605292602880E-05
           7.3337184227149140E-05    9.2095494460523997E-06   -7.1625233295163847E-05
           2.1338123983788864E-05    8.8312052531393383E-05   -6.8433506609465384E-05
          -1.7657672868631659E-05   -3.6777145069910630E-05   -2.2906009236568118E-05
          -2.9920753242176547E-05    9.6970400846882720E-05   -3.7350025114391605E-05
          -6.5616951807462398E-05    6.9322139657352060E-05    4.5690756177241386E-05
           5.2552442717672778E-05   -6.4543111676799896E-05    8.9025326801105161E-05
           1.7796141919295492E-05   -6.5651647937514350E-05    9.7868214459640875E-05
           6.5033408772280501E-06   -5.6259975080195987E-05    5.8217920196311891E-05
           7.8686677434259688E-05   -5.1969413812514342E-05   -3.7871495809088959E-05
           7.0648929445272826E-05    7.1015352829547355E-05   -7.2956798737247828E-06
          -7.9298317496165559E-07    8.1954476303550456E-05   -1.3478608762057020E-06
          -1.4347613854610902E-05    1.9346275341315440E-06   -1.0021444554395000E-04
           1.6866580447563211E-04    3.9989598635798057E-05    1.4144744700189756E-05
          -1.5070611949531595E-04    4.9865712758888427E-05   -7.5024941907099834E-05
           1.8066831945175405E-05    1.4097853706435676E-04   -1.9796820982347499E-05
          -2.4561399297130124E-05    8.5129917798043963E-05    2.7659619866528885E-05
          -1.0752265649101918E-04   -5.6206004304953451E-05   -6.3061383681266146E-07
          -2.9796711560744419E-05   -2.2357437984600403E-05   -5.1185120301225645E-05
           9.9147555672372639E-06   -6.5713988953336716E-05    8.7277313268282637E-05
          -4.3569663903408868E-05   -3.4683523420160607E-05   -4.5304177610696412E-05
          -1.1497380155369828E-05    1.2133220126671994E-05    8.6942618732539212E-05
           1.2667257586251725E-05    3.1603068512977744E-05    4.4856932986899163E-05
          -2.3967489514900379E-05    2.5759045457572251E-05    1.5911052881036311E-04
          -1.9528883069185907E-05    4.1025777857909697E-05    2.3026985491231375E-05
          -1.4230785464438352E-04   -9.8508654704725329E-06   -1.8950663293454341E-05
           7.3537494293371923E-05   -1.4521028150400377E-06    4.1226962695447077E-05
           7.6663132509243291E-06    1.2076530619966438E-04    5.3836397372221480E-06
           6.6801657423736408E-05    4.6346655579246705E-05    2.5756909299309878E-05
           1.6081142358465191E-04   -4.3024523719632577E-06   -7.8707784320968067E-05
          -1.5417261285405318E-05   -7.5466789961050145E-05   -2.0195869331083315E-05
           1.8158525048141911E-05    5.0583185961079333E-05   -2.8883513401393838E-05
          -1.2149750498622351E-04   -1.5334377290029591E-05    2.7167408118689670E-05
           6.5705548563424417E-05   -4.3583656782410222E-05    4.0451649360025586E-05
           8.6552202408757257E-05    1.0773691855547875E-05    6.2065863755075796E-06
          -5.3346951809978490E-05   -1.8359788494408708E-06    4.2537878442295090E-05
          -2.1124291770140325E-05   -1.8226593861828983E-05    1.5635477532689773E-06
           9.2875624312820782E-05   -3.2137720652834642E-05    8.1350058549360617E-05
          -6.3635067608682118E-05   -1.4693462136493521E-04   -4.1326346999795424E-05
          -3.7226542548937918E-05   -7.2471310392308242E-05   -3.6712330671450818E-07
           3.8758026693294904E-05   -2.8613435599116058E-05    3.6328151849585784E-05
          -9.7821805901294646E-07    5.4296129731386546E-05   -8.6696450676024058E-05
           1.2525730066680468E-05   -2.6977884127208852E-05   -1.2215298996921058E-04
     &END VELOCITY
     &TOPOLOGY
       NUMBER_OF_ATOMS  108
       MULTIPLE_UNIT_CELL  1 1 1
     &END TOPOLOGY
   &END SUBSYS
 &END FORCE_EVAL
