 # Version information for this restart file 
 # current date 2020-11-10 15:35:05.180
 # current working dir /lustre/share/tmp/samples/cp2k
 # Program compiled at                              Mon Sep 28 11:32:36 CST 2020
 # Program compiled on                                     cas607.pi.sjtu.edu.cn
 # Program compiled for                            linux-centos7-cascadelake-gcc
 # Source code revision number                                       git:e635599
 &GLOBAL
   PROJECT_NAME ar108
   RUN_TYPE  MD
 &END GLOBAL
 &MOTION
   &MD
     ENSEMBLE  NVE
     STEPS  100
     TIMESTEP     4.9999999999999991E+00
     STEP_START_VAL  40
     TIME_START_VAL     2.0000000000000011E+02
     ECONS_START_VAL    -1.6331454346504903E-01
     TEMPERATURE     8.5000000000000000E+01
     &AVERAGES  T
       &RESTART_AVERAGES
         ITIMES_START  1
         AVECPU     2.0400437802541989E+00
         AVEHUGONIOT     0.0000000000000000E+00
         AVETEMP_BARO     0.0000000000000000E+00
         AVEPOT    -2.0808986608404431E-01
         AVEKIN     4.4773423412077032E-02
         AVETEMP     8.8089171422791580E+01
         AVEKIN_QM     0.0000000000000000E+00
         AVETEMP_QM     0.0000000000000000E+00
         AVEVOL     3.4087613522108550E+04
         AVECELL_A     3.2423920988051862E+01
         AVECELL_B     3.2423920988051862E+01
         AVECELL_C     3.2423920988051862E+01
         AVEALPHA     9.0000000000000000E+01
         AVEBETA     9.0000000000000000E+01
         AVEGAMMA     9.0000000000000000E+01
         AVE_ECONS    -5.5090161587894688E-03
         AVE_PRESS     0.0000000000000000E+00
         AVE_PXX     0.0000000000000000E+00
       &END RESTART_AVERAGES
     &END AVERAGES
   &END MD
 &END MOTION
 &FORCE_EVAL
   METHOD  FIST
   &MM
     &FORCEFIELD
       &NONBONDED
         &LENNARD-JONES
           ATOMS Ar Ar
           EPSILON     1.1980000000000000E+02
           SIGMA     3.4049999999999998E+00
           RCUT     8.4000000000000004E+00
         &END LENNARD-JONES
       &END NONBONDED
       &CHARGE
         ATOM Ar
         CHARGE     0.0000000000000000E+00
       &END CHARGE
     &END FORCEFIELD
     &POISSON
       &EWALD
         EWALD_TYPE  NONE
       &END EWALD
     &END POISSON
   &END MM
   &SUBSYS
     &CELL
       A     1.7158000000000001E+01    0.0000000000000000E+00    0.0000000000000000E+00
       B     0.0000000000000000E+00    1.7158000000000001E+01    0.0000000000000000E+00
       C     0.0000000000000000E+00    0.0000000000000000E+00    1.7158000000000001E+01
       MULTIPLE_UNIT_CELL  1 1 1
     &END CELL
     &COORD
Ar   -8.3953397999602775E+00   -1.5666585766260068E+01    2.6402248098115817E+00
Ar    1.5276152519612389E+00    9.2672419892450133E+00    1.1152339904469171E+01
Ar    1.1764441160791199E+01   -7.5069892149130517E+00   -1.0310343876073308E+01
Ar   -1.2301895840765631E+01   -3.5073001695441408E+00    4.3281482252719261E+00
Ar   -1.3469388691597028E+00   -4.6651118167692823E-01    1.3311708504113561E+01
Ar    8.2573494331500896E+00   -2.7684305037330232E+00   -4.0245840076519084E+00
Ar    8.5891081086540488E+00    3.8392704149890062E+00    5.7839601750239602E+00
Ar   -4.1545125564153533E+00   -1.0119866323754826E+01   -6.9807723671148043E+00
Ar   -3.7047663039921184E+00   -1.5744706995525062E+01    1.5685024785258586E+01
Ar    9.7298225086465422E+00   -1.6337084395721192E+01   -5.6212471050455965E+00
Ar    4.3179855737516720E-01   -4.0434806247628021E+00    1.2571173136992293E+01
Ar    1.5560511672239514E+01   -8.0789167588003643E+00    2.4076963022502196E+00
Ar   -5.0524752263366599E+00   -2.5018356920744953E+00   -8.0628784511835994E-01
Ar   -2.0206819991356584E-01   -1.6720815029083618E+00   -7.0369422529703805E+00
Ar    7.6848155198487165E+00   -5.3407329927339697E+00   -1.2692362685168826E+01
Ar   -4.8841690299342266E+00    6.4889931942406631E-01    2.0403499478996876E+00
Ar   -1.1910136542867841E+01    3.1279228196231483E+00    3.9032171483555382E+00
Ar    1.6808325873271624E+01   -7.3297266631744780E+00   -1.0636399034927362E+00
Ar   -2.0191747361407295E+01   -5.7538361947087768E+00    4.7881048959703127E+00
Ar    1.4783683353382068E+01   -1.3286609662171207E+00   -1.6105053195550131E+01
Ar    8.3949817529259807E+00   -8.3254598759317044E+00   -4.3499485951516093E+00
Ar    1.1891056993709171E+01   -1.6908305567651316E+00    1.2834368059467753E+01
Ar   -7.7773771013151291E-02   -1.1276002299567915E+01    2.0248821244244578E+01
Ar    1.8606925178822851E+00    5.9265570414995103E+00   -1.1248859921413802E+01
Ar   -1.4197924270444725E+01    8.9280918872154533E+00    7.7793992671015104E+00
Ar   -9.9327882616515009E+00    6.6198931058731132E+00   -1.5101102606020357E+01
Ar   -2.8229828260122676E+00   -2.1741336536675501E+01    1.1095056482488564E+01
Ar   -1.7872758163445276E+01   -1.0906578677218596E+01   -4.8578900711417496E+00
Ar    4.9082911482611031E+00   -6.9228519290167894E+00   -6.2612820488084644E+00
Ar    3.1536679134877375E+00   -1.0289202702838901E+01    2.6222722332774921E+00
Ar   -1.6178826889727763E+01   -4.8579022804700909E+00    8.7829287668543952E+00
Ar   -6.0496259480557617E+00    4.5478017585300821E+00    2.8287403043767663E+00
Ar    6.6762579335335301E+00    2.7717046420314336E+01    1.5345419997108452E+01
Ar   -2.9877832464053076E+00    2.2952841346571319E+01   -1.7011119817599990E+01
Ar   -3.8480907399563771E+00    9.4804889292333883E+00    1.6213114919014082E+01
Ar   -7.8951097127698180E+00   -9.7200286212825127E+00   -2.9797099545882666E+01
Ar    2.1817775600632228E-01    1.4146182054947973E+01   -6.5533753683690033E-01
Ar   -5.7862508159833386E+00   -5.1384233510267974E+00   -2.0351557825993719E+01
Ar    2.3132394877580644E+01    6.6256853530445854E+00   -1.9744519242073981E+00
Ar    1.9597012188581264E+01   -1.0174993344972972E+01   -3.4992160588350920E+00
Ar   -6.6522977485269946E-02    6.7414749207529718E+00    8.6386418314490871E+00
Ar    5.5156661387343098E+00   -1.0907342641328156E-01    9.6147999720409905E-01
Ar   -3.5970578470121888E+00    3.6401156676539839E+00    2.5575696603093398E+01
Ar   -2.3355239083117038E-01    2.0308708440394579E+01   -2.6557678450524902E+00
Ar    2.4980724076443699E+00    3.9447720293544103E-01    9.9741993191957370E+00
Ar    3.4546328918847369E+00   -3.0413421761173831E+00   -6.7364033763434827E+00
Ar   -5.7415730855728473E+00   -6.8318535365437461E+00   -6.7814351070393908E+00
Ar   -2.3044743758267746E+01   -2.8133641758011624E+01    7.2595669309449740E+00
Ar    3.5948238522077522E+00    2.7510704577032139E+00   -9.0426119428390606E-01
Ar    1.5052063465972470E+01    2.7783653131327162E+00    1.9870531726368872E+00
Ar    1.9332918412048585E+01    1.6547029357585075E+01    1.3400428786205724E+01
Ar   -2.8310659108089293E+01    2.6080134075389418E+00   -8.8780992623681581E+00
Ar   -5.8400864307492020E+00   -1.5909060277828505E+01   -9.1188237322528369E+00
Ar    1.0075145594940604E+01    1.6504391212014720E+01    5.1575552745414042E+00
Ar   -7.5965113675834628E+00    6.3057110766823641E+00   -1.1662607463455092E+00
Ar   -1.2243453873440741E+01   -1.0616591330898226E+01   -6.3130634188982171E+00
Ar   -8.1127996181056705E+00    1.2800582793141064E+01   -9.1162422365319407E-01
Ar   -2.5058868564528535E+01    3.8157327107948111E+00   -7.7938141048659082E+00
Ar    2.6735927713798704E+00   -1.2906471584086566E+01   -7.6165919167789067E+00
Ar   -1.3650202293259605E+01    1.1923127252202534E+01   -3.3113667911598372E+00
Ar    1.3060367080829433E+01    5.3500294903861345E+00   -3.0475230207970223E+00
Ar   -1.3297413387791448E+01    1.5667551312641628E+01    7.1167436798097903E+00
Ar   -4.0131541550638978E+00   -1.9349635809031493E+01    2.1202363308283442E+01
Ar   -8.1856365295504023E+00    1.6482413634696879E+01   -1.7874113091160801E+01
Ar    4.4980743068716944E-01    9.7974538278545715E+00    2.2160526237962564E+01
Ar   -2.8435863634478689E+00   -8.1630770599448557E+00   -2.1185340555301359E+01
Ar   -6.4568111815111653E+00   -4.8178216265701925E+00    2.9098059919199084E+00
Ar   -3.8035864889591791E+00   -1.4857070087769312E+01   -4.9740498431620885E+00
Ar   -2.7913254115612421E+01    6.3655433053883959E-01   -3.0442656276911486E+00
Ar   -2.4263866004274912E+00    7.2063212659079312E+00    5.5012869080682476E+00
Ar   -8.6691861427640369E+00   -6.4077315883142507E+00   -8.7049165427205395E+00
Ar   -1.2047398342486456E+01   -2.5673466086841743E+00   -1.8699799222851561E+00
Ar    2.2796393402573987E+01    1.1739493411764409E+01    1.2324854359914175E+00
Ar    6.1828546531144362E+00   -3.3217245803473822E-01   -7.0956213108074335E+00
Ar    3.1963627133111565E+00   -8.1390364845505303E+00   -4.7176467420900153E-01
Ar    2.5987140988744895E-01    1.7403498805967669E+01   -1.7597821070586459E+01
Ar    2.1182057399153390E+01    1.0078020781773056E+01   -1.2595265370343993E+01
Ar    9.5777930310009451E-01    5.8457289116079574E+00    1.6757302439557478E+01
Ar   -7.0228485480068317E+00    5.9233629389491274E+00   -2.2645153180482168E+01
Ar   -1.0429616770069518E-01    1.7806355223902859E+01    7.5993812467033139E+00
Ar    1.5099619669080626E+01    9.9163209263402408E+00   -8.0530006972352002E+00
Ar   -6.9467613541343072E+00   -1.4879823586262242E+01    1.4646390461903122E+01
Ar   -2.2643599267525278E+00   -4.5972462147952937E+00   -2.3934874070039864E+00
Ar    4.9049788236701142E+00   -2.2308484731951960E+01    7.6167380492295438E+00
Ar   -9.4532047971012201E+00   -2.2542199065459814E+00    2.1732433398257354E+00
Ar    6.5528477407554560E+00    4.1514647679889732E-01    5.6347372557615092E+00
Ar    1.2083516265328646E+01    8.6006799730239845E+00    2.4115830979798978E+00
Ar   -1.4374697242346027E+01   -5.5194331445133094E-01   -1.3587475092649070E+01
Ar    1.4685034631503406E+01   -2.9472265766906682E+00    2.4159551617783873E+01
Ar   -3.4943432816019282E+00   -3.9399088938492904E-01   -7.2584870839464246E+00
Ar    7.5178449296184455E+00    3.2861049867673233E+00   -3.8249777756579112E-01
Ar   -1.0468972813466120E+00   -1.7120554424804514E+01   -1.3145477448675988E+01
Ar   -9.2911834132949629E+00   -1.0371855788444600E+01   -8.8812610720004077E+00
Ar   -6.4565982677006843E+00   -4.0645699580172439E+00   -1.0971915274782116E+01
Ar    6.6675582816782220E-01    1.3787903229913606E+01    5.4498116960056091E+00
Ar    8.9038670780569937E+00    9.8186095467568606E+00    1.0779195233430294E+00
Ar   -6.3624523636689378E+00   -2.0170301792516227E+01   -7.4763521668930926E+00
Ar   -2.8448582512318055E-01    1.9797630980654244E+01    1.0686367697313507E+01
Ar    7.4332555125329405E+00   -2.5471169408011756E+00    7.2470063765701784E+00
Ar    1.4032698572431650E+01    1.2195920059450204E+01    1.2570890501160092E+00
Ar   -4.2171702208193302E+00    1.9422511390509566E+01   -1.2061824762885491E+01
Ar    1.8359435584829713E+00   -5.7354768242153540E+00    1.8990536931479207E+00
Ar    1.8737897516965830E+01    2.7809652703270222E+00    2.1365251488373467E+00
Ar    5.8910531153136603E+00   -9.6371262827848909E+00    5.6367310978950433E+00
Ar    4.2907407741507146E+00    3.6562092699076012E+00   -4.4188298236665338E+00
Ar    2.5354980439595041E+00    2.4298074840570587E+00    6.2327228661378644E+00
Ar    2.4879329453285859E+01    3.9192241111102741E+00    1.3291616331360995E+01
Ar   -1.0376461303464262E+00    4.0612280374489282E+00    6.3195955765874805E+00
     &END COORD
     &VELOCITY
          -1.7149537933644794E-05    8.4828570979107411E-06   -7.5548484094698547E-05
          -5.4756656683471099E-05    1.7689123674799808E-05    1.4226542955619977E-06
          -5.1464196746237900E-05    3.3816507491518450E-05   -1.0424206167601035E-04
          -1.6120723608183076E-05    5.1115774210941438E-05    5.4111219027074734E-05
           3.9730624836168307E-05   -5.6656911009453545E-05    4.0090779456910438E-05
           6.2328201961924239E-05   -3.0502495633205251E-05   -2.6225886480192770E-05
           6.8525652454035581E-06   -4.0326457679892899E-05    3.4074154146303990E-05
           1.4670364049917040E-05    9.0073660690568054E-05    2.1705513747574535E-05
          -6.3061846721726273E-05    8.7017914798425742E-05   -1.1580712617865831E-04
          -2.5241052501064630E-05   -1.1904107924107719E-04    1.8349004559727257E-05
           2.3521989607702419E-05   -2.1070002907570631E-05    8.7754476490639399E-05
          -5.8774809792568610E-05   -3.9117787888994734E-05   -5.0993711059174070E-05
           1.3976973747901252E-04    4.5321176192251647E-05    1.6144342074789484E-05
          -3.7663309582345269E-05    3.9713324333001730E-05   -4.0627134630455827E-05
           1.0311144216059462E-04   -5.8998392320726422E-05    9.1922425454314349E-05
           4.9800268478605576E-05    3.1054200798676810E-05   -6.0098338817377971E-06
          -2.3628361350293493E-05   -2.1512796643274795E-05    1.3602968614743656E-06
           7.4791999462013893E-05    2.9744798078480630E-05   -2.2155134260264900E-05
           7.3043309433823669E-05   -8.8343992134246033E-06    4.8114876711529846E-06
           9.9703729420985097E-06   -3.1909175004413971E-05   -5.4186765685318520E-05
           9.9547676929403794E-05   -5.8655089442044835E-05    5.4637200712840620E-05
          -7.6913800991588500E-05    1.6157679623593024E-05   -2.3367116893111156E-05
           2.0449522246194546E-05   -7.2751158456184069E-05   -8.3059573881833079E-05
           4.0382010652183095E-05    3.2478367387888262E-05   -5.8669091855594627E-05
          -4.7605027115394798E-05    1.7149780907792001E-05   -7.8630142655028142E-05
           2.9144847407370976E-05    2.0550119430199852E-05   -1.9489111924264777E-05
          -8.5703407925039954E-05    1.8452713906990726E-05    8.6337649950053396E-05
          -6.4819749126660976E-05   -6.3532245197871258E-05   -2.8333134559188436E-05
          -2.1610928067069854E-05   -3.8063193053780174E-05   -9.0765906699271086E-05
          -5.0397897279898764E-05   -4.8630352583970335E-05   -1.1039220935340146E-04
          -1.8254308007991055E-05    4.4106455566734335E-05    3.1452398303603698E-05
          -5.9163727315362040E-05    6.1808122507233458E-05    5.5205553453247510E-05
          -1.8875910797654570E-06   -4.9792802032933021E-05    2.2486815536801507E-05
           6.2182881071290398E-05   -6.8317427967100848E-05   -2.0296094988023923E-05
           4.8045390859760798E-08    4.6139919625569729E-06   -3.4384556295644235E-05
           5.2119057660459422E-05   -5.7446325975574701E-06    3.6917184259633890E-05
          -9.7308837076973527E-06   -5.0304044493157827E-05   -6.7563721634541311E-05
          -1.4386526572078640E-04    4.4435927079268690E-05   -7.7294028284726865E-05
           3.7818234638886320E-05   -4.2453410663596527E-05    3.5825311794799315E-06
           3.3849351685370510E-05    1.8846569590205841E-05   -5.2637564719769182E-05
          -1.2767662147411725E-04    6.9370061112550562E-05    2.5186135462655835E-05
          -3.6411452861564723E-05   -3.9414773993173615E-05   -2.3545209696074787E-05
           6.6724874500695349E-05   -2.3786891905595477E-05   -1.0934227875209961E-05
          -8.3375566718160092E-06   -3.4605718081414180E-05   -4.9543832431221938E-05
          -5.9081001050976796E-05   -6.0610037609403240E-05   -1.1975076846785972E-06
           8.1867726866966404E-05   -2.9761459421544328E-05   -7.8282320194165866E-05
           1.5462829327138222E-04   -1.8670479300650647E-06    6.4092555296628335E-06
           4.9049594761875625E-05   -9.2484588069253142E-05    1.6355242133352582E-05
          -1.2583881265902373E-04    1.3309702317559878E-05   -3.8026825948570370E-06
           1.4892559403661078E-04    2.8527302151907986E-05   -3.7744270767589091E-06
           1.3934075376303813E-04   -1.2734627047924640E-05    3.7387854545881797E-05
           3.3133937158187319E-05   -4.3481002445718688E-06    1.1021558043774102E-04
          -5.6409291127626260E-05   -3.4548936128726886E-05   -2.2924890486377202E-05
           3.7423932746666275E-06    4.7034387661562719E-05    1.1624162046122661E-05
          -6.9180548761474343E-05   -3.2314258052697489E-07   -1.1555780472353909E-04
          -1.2514543082179912E-05    2.1243486091259871E-05    5.1470796740919815E-05
           1.2573671073354389E-04    3.5930362901656015E-05    7.2692910493991171E-05
           3.1445313926596491E-05    1.6539020576594824E-04   -1.2846817193420062E-05
          -1.0624733170122142E-04   -8.0965279859611855E-06    3.5978829324049091E-05
          -4.3669178624178022E-05   -3.0770476053731434E-05    9.6506900654816529E-05
          -2.2626157569271453E-05    1.1333297035800676E-04    1.0474030760764358E-04
          -2.6968550644572338E-05   -9.1821958611614310E-05    2.4961619020775781E-05
           3.7317321005270469E-05    2.7824222425903162E-05    7.1815265679972233E-05
           3.7663712103267312E-05    1.0824996173351071E-04    1.0278345116104136E-04
          -5.0665961868584805E-05    4.9315199292842169E-05    1.1286975137247182E-04
           3.8175342777875609E-05   -3.0571960293093751E-05   -6.6216191430378918E-05
           2.7122795010159689E-05   -9.4952786314288334E-05   -5.6990546504367430E-05
           3.7769173109546192E-05    1.3457967864823878E-05    1.5619698880501497E-04
          -4.8182238770210398E-05   -9.3992707577955501E-05   -4.6192015858530679E-06
           8.8481550990704880E-05    4.2760886886301599E-05   -1.4887983556361958E-04
          -6.3888402233847421E-05    6.9890572102196912E-05    5.6434899663041116E-05
          -1.1235913326229543E-05   -7.7048259650061148E-05    2.4354593001547529E-05
           3.3084287059705068E-06   -8.8966508847389045E-05    8.5019203325371331E-05
          -1.0322788852569474E-05    9.0482389914814986E-05   -1.9223422687236570E-05
          -6.0339173091235280E-05   -2.3258683943698822E-05   -5.0191619844187929E-06
           1.6928595980058986E-05    2.0772698073128355E-05   -5.9577896639635914E-05
           5.1296683308814465E-06    2.0839525942608155E-05    8.6065929818617104E-05
          -7.8849123353000086E-05   -1.7775796059267715E-06    3.7090630935353204E-05
           3.0293704393113576E-06   -6.3379453702956458E-06   -2.0669485355940688E-05
          -9.7110563440819253E-05    2.1830458099672866E-05    9.0636663830445004E-05
           2.5152239866983646E-05   -6.9061435172475510E-05    4.6254279836061022E-05
           1.2762835451068302E-05    2.5488426382491994E-05    6.2316406221842315E-05
          -5.2232175423546556E-05   -9.4682469927976549E-05    1.8488340411987772E-05
          -8.3104108048379701E-05    8.5136985602932920E-05    5.7479886354500629E-05
          -1.2302719089536345E-04    3.7156098344310947E-05   -5.4986225435969705E-06
          -3.3526653552834725E-05   -4.3235253870493213E-05   -1.6873430446549697E-06
           4.6542202209243039E-05    1.0454314728204946E-04    2.3757279959065787E-05
           3.2588544211320750E-05    1.0491175678485429E-06    2.6842722619859544E-05
           1.4669279137157761E-04   -3.1766635916683299E-06   -8.6118798354612241E-05
          -1.1003873477296858E-05    3.6467778986230286E-05    3.6532587400045449E-05
          -9.4008015857779511E-05   -1.0495856747236124E-05   -3.5871127112968415E-05
           3.4565719332343933E-05    1.6892890721068240E-05   -4.6076759564918880E-05
          -1.6027100778221191E-05    4.8307922201825284E-05   -6.4492375742287550E-05
           2.6860194888899656E-05   -8.1039443220561890E-05   -1.9175337834592199E-05
          -6.5213003288146313E-05    1.3591636295629083E-05    7.5450887045517434E-05
          -3.9132478993482697E-06   -7.7031111037245060E-05    9.7448001137342498E-06
           4.6616033194986787E-05    6.3463340741244396E-05   -2.0239538224856045E-05
           2.5364770047194453E-05    5.0310132075636016E-05   -8.5294464631199265E-05
           4.5448180619537714E-05    1.1457959392046110E-05    4.9973306548095890E-06
           5.5324296977575819E-05    5.4169949953857888E-05   -1.3934308666913957E-06
          -1.4094636811436115E-04   -9.6247000625234363E-05   -8.4808921192443336E-05
           6.9165761493942819E-05   -7.1389294245841279E-05   -9.1554565907263072E-06
           4.5489170040388302E-05   -4.9801503940362746E-05    4.2212059967692801E-05
          -1.6816487885328008E-04   -6.8077821798420430E-05    2.5579072488751940E-05
           1.0779124842237955E-04    2.9352473339000170E-05   -2.7951324888913495E-05
           5.3813504515094891E-05    3.9848012174727279E-05    1.9766786943195446E-05
           6.1470682061481844E-05    1.0945417821727099E-04   -5.1388506261821205E-05
          -1.0376692018004514E-04    7.3650950170498611E-05   -4.5149238535789988E-05
     &END VELOCITY
     &TOPOLOGY
       NUMBER_OF_ATOMS  108
       MULTIPLE_UNIT_CELL  1 1 1
     &END TOPOLOGY
   &END SUBSYS
 &END FORCE_EVAL
