 # Version information for this restart file 
 # current date 2020-11-10 15:35:44.328
 # current working dir /lustre/share/tmp/samples/cp2k
 # Program compiled at                              Mon Sep 28 11:32:36 CST 2020
 # Program compiled on                                     cas607.pi.sjtu.edu.cn
 # Program compiled for                            linux-centos7-cascadelake-gcc
 # Source code revision number                                       git:e635599
 &GLOBAL
   PROJECT_NAME ar108
   RUN_TYPE  MD
 &END GLOBAL
 &MOTION
   &MD
     ENSEMBLE  NVE
     STEPS  100
     TIMESTEP     4.9999999999999991E+00
     STEP_START_VAL  60
     TIME_START_VAL     3.0000000000000017E+02
     ECONS_START_VAL    -1.6331454346504903E-01
     TEMPERATURE     8.5000000000000000E+01
     &AVERAGES  T
       &RESTART_AVERAGES
         ITIMES_START  1
         AVECPU     2.0121111372485747E+00
         AVEHUGONIOT     0.0000000000000000E+00
         AVETEMP_BARO     0.0000000000000000E+00
         AVEPOT    -2.0793685968890938E-01
         AVEKIN     4.4620308350236788E-02
         AVETEMP     8.7787926221911633E+01
         AVEKIN_QM     0.0000000000000000E+00
         AVETEMP_QM     0.0000000000000000E+00
         AVEVOL     3.4087613522108550E+04
         AVECELL_A     3.2423920988051862E+01
         AVECELL_B     3.2423920988051862E+01
         AVECELL_C     3.2423920988051862E+01
         AVEALPHA     9.0000000000000000E+01
         AVEBETA     9.0000000000000000E+01
         AVEGAMMA     9.0000000000000000E+01
         AVE_ECONS    -5.8413933888006439E-03
         AVE_PRESS     0.0000000000000000E+00
         AVE_PXX     0.0000000000000000E+00
       &END RESTART_AVERAGES
     &END AVERAGES
   &END MD
 &END MOTION
 &FORCE_EVAL
   METHOD  FIST
   &MM
     &FORCEFIELD
       &NONBONDED
         &LENNARD-JONES
           ATOMS Ar Ar
           EPSILON     1.1980000000000000E+02
           SIGMA     3.4049999999999998E+00
           RCUT     8.4000000000000004E+00
         &END LENNARD-JONES
       &END NONBONDED
       &CHARGE
         ATOM Ar
         CHARGE     0.0000000000000000E+00
       &END CHARGE
     &END FORCEFIELD
     &POISSON
       &EWALD
         EWALD_TYPE  NONE
       &END EWALD
     &END POISSON
   &END MM
   &SUBSYS
     &CELL
       A     1.7158000000000001E+01    0.0000000000000000E+00    0.0000000000000000E+00
       B     0.0000000000000000E+00    1.7158000000000001E+01    0.0000000000000000E+00
       C     0.0000000000000000E+00    0.0000000000000000E+00    1.7158000000000001E+01
       MULTIPLE_UNIT_CELL  1 1 1
     &END CELL
     &COORD
Ar   -8.4609453952318798E+00   -1.5631776189802670E+01    2.4727334477113083E+00
Ar    1.3481043997007789E+00    9.3338014218486105E+00    1.1139650919019736E+01
Ar    1.1653054918891868E+01   -7.4670407980796947E+00   -1.0540327793117596E+01
Ar   -1.2365366209648586E+01   -3.3791895805585339E+00    4.4095372621596178E+00
Ar   -1.3041976956889199E+00   -5.9449923037470143E-01    1.3413840384530740E+01
Ar    8.3794845942422729E+00   -2.8173036025498646E+00   -4.0996883923154934E+00
Ar    8.6042662450278993E+00    3.7433969211394440E+00    5.8244227668830630E+00
Ar   -4.0400332300853865E+00   -9.9570318423704798E+00   -6.9408745289256748E+00
Ar   -3.7500327000125768E+00   -1.5602732200578345E+01    1.5548945553565556E+01
Ar    9.6290931394658319E+00   -1.6572314947060633E+01   -5.6338754265476316E+00
Ar    4.8901143384411544E-01   -4.0886998825714249E+00    1.2751555602688049E+01
Ar    1.5490670838783617E+01   -8.1683020687132792E+00    2.2108235793690616E+00
Ar   -4.8077072977830975E+00   -2.4104101180658106E+00   -8.0731161133798457E-01
Ar   -3.2236814091578136E-01   -1.6981745456031714E+00   -7.0851327444333956E+00
Ar    7.8776558513832828E+00   -5.5292801878639963E+00   -1.2460053909477514E+01
Ar   -4.8885548227384632E+00    7.2771299935658884E-01    1.9639931649124081E+00
Ar   -1.1962623793180615E+01    3.1317395322715740E+00    3.8536848644217230E+00
Ar    1.6996122593739109E+01   -7.2758703773680100E+00   -1.1153667084852956E+00
Ar   -2.0035194176533899E+01   -5.7768182992555008E+00    4.8019429270695744E+00
Ar    1.4893516407598399E+01   -1.4118018930647935E+00   -1.6206448296607959E+01
Ar    8.6086145063940780E+00   -8.4343167960382424E+00   -4.2467532990803321E+00
Ar    1.1789902195555955E+01   -1.6575274966836322E+00    1.2836449759396560E+01
Ar   -1.4413092448536541E-01   -1.1456977768695898E+01    2.0061240228553476E+01
Ar    2.0246072334709786E+00    6.0283428058736845E+00   -1.1356431748535011E+01
Ar   -1.4315065761694694E+01    8.9477334262392869E+00    7.6678398928576970E+00
Ar   -9.9488528741795985E+00    6.6138931688923837E+00   -1.5224301046182818E+01
Ar   -3.0248281738766929E+00   -2.1633025822786845E+01    1.1293403717547678E+01
Ar   -1.8024082533634676E+01   -1.1084858808068940E+01   -4.9350191700663508E+00
Ar    4.9020214219148670E+00   -6.9836743695436665E+00   -6.4542780530122954E+00
Ar    3.1411196673227844E+00   -1.0370393408443327E+01    2.3713275208106235E+00
Ar   -1.6248113872110114E+01   -4.8206216686021390E+00    8.8332311150029170E+00
Ar   -6.1769882049809572E+00    4.6892591477139698E+00    2.9320890202575254E+00
Ar    6.6275919152059535E+00    2.7572993350436029E+01    1.5347817489730236E+01
Ar   -2.8214266768261922E+00    2.2845315411014656E+01   -1.6959491155891492E+01
Ar   -3.9303985807939323E+00    9.4733136501440285E+00    1.6234354349227313E+01
Ar   -7.7256057634013722E+00   -9.6827969650632113E+00   -2.9644767185267312E+01
Ar    2.7850575952083345E-01    1.3923528340769513E+01   -8.0248348758525689E-01
Ar   -6.0309108154168474E+00   -5.1085907425442620E+00   -2.0618556552324208E+01
Ar    2.3176365619455588E+01    6.5453980104063643E+00   -1.9659741173946981E+00
Ar    1.9705395314004186E+01   -1.0159121228147844E+01   -3.5806291724107142E+00
Ar   -3.5779352714423956E-01    6.8844098926990256E+00    8.7137887745032874E+00
Ar    5.3339439730979770E+00   -6.7463884452880721E-02    8.5002346385340422E-01
Ar   -3.4700254432284288E+00    3.6151585685770735E+00    2.5694833541698358E+01
Ar   -2.6241191840402156E-01    2.0238851760173429E+01   -2.7780054735282356E+00
Ar    2.4783740279757493E+00    3.5523432720366510E-01    9.9683468427523376E+00
Ar    3.6644437952450755E+00   -3.1069710065729725E+00   -6.8215056094549364E+00
Ar   -5.4222429205066751E+00   -6.8184195644450520E+00   -6.7367619520519897E+00
Ar   -2.2930060505363169E+01   -2.8354561579259506E+01    7.2519897280235881E+00
Ar    3.3300271500140628E+00    2.7775498761746578E+00   -9.3134870492234900E-01
Ar    1.5370672356986082E+01    2.8521683479764683E+00    1.9576274104378664E+00
Ar    1.9664307681609777E+01    1.6509353169105903E+01    1.3506870332067223E+01
Ar   -2.8282073935794092E+01    2.7128779399529197E+00   -8.6682797203242163E+00
Ar   -6.0796965318241689E+00   -1.6042960197295365E+01   -9.1659581580537797E+00
Ar    1.0072191817681173E+01    1.6594366930055649E+01    5.1716327400962969E+00
Ar   -7.7092690286109198E+00    6.3100084420819798E+00   -1.4170600367017214E+00
Ar   -1.2217888597135202E+01   -1.0512250224027794E+01   -6.2245950741515799E+00
Ar   -7.9052348388973988E+00    1.2931293092254471E+01   -6.3317423659989902E-01
Ar   -2.5018496785369223E+01    3.9819425049948425E+00   -7.9030205371586248E+00
Ar    2.4623226669437748E+00   -1.2909452181617358E+01   -7.5929083737716905E+00
Ar   -1.3759136200909987E+01    1.1773351477851559E+01   -3.1133512848027225E+00
Ar    1.2970582046743997E+01    5.5996833230340535E+00   -2.9135021360371955E+00
Ar   -1.3398410363147155E+01    1.5508642132216012E+01    7.1821688207232386E+00
Ar   -3.9706365330461804E+00   -1.9299643672540114E+01    2.1303489148411575E+01
Ar   -8.0996367592804024E+00    1.6732107337463823E+01   -1.7670207339586586E+01
Ar    3.5724265403067201E-01    9.9073531136191093E+00    2.2458023949280392E+01
Ar   -2.7380117885099904E+00   -8.1928520257083441E+00   -2.1429823008853855E+01
Ar   -6.3352818574623546E+00   -5.0051451338345743E+00    2.6878737367638119E+00
Ar   -3.7282000735524070E+00   -1.4797703731674392E+01   -4.7181546107163852E+00
Ar   -2.8016753987512786E+01    4.5071208310277716E-01   -3.0666091293248403E+00
Ar   -2.2888321453229219E+00    7.3491027897314725E+00    5.2145083700995132E+00
Ar   -8.8314905232999941E+00   -6.2491748888445180E+00   -8.5994313319609894E+00
Ar   -1.2030138492711885E+01   -2.7023157525091834E+00   -1.7714587507899513E+00
Ar    2.2788132443004105E+01    1.1565548913717695E+01    1.4611644384060523E+00
Ar    6.1749420801312578E+00   -2.2828716991063142E-01   -7.0757834853294614E+00
Ar    3.1159283155795574E+00   -8.1992399286683995E+00   -4.9971996649506650E-01
Ar    3.5255224913423544E-01    1.7593109641342071E+01   -1.7726191605043500E+01
Ar    2.1168930756675671E+01    1.0217071673225647E+01   -1.2496130315081643E+01
Ar    7.8981496135426921E-01    5.8411101377604382E+00    1.6810679677246700E+01
Ar   -6.9371914371322605E+00    6.0275313212894259E+00   -2.2544702003015953E+01
Ar   -3.7682318191192576E-01    1.7884675682429990E+01    7.6889141707689523E+00
Ar    1.5172814614382276E+01    9.7665469615159815E+00   -7.9946273328382764E+00
Ar   -6.8718752936340124E+00   -1.4833910415113692E+01    1.4816517617767719E+01
Ar   -2.4573136202614125E+00   -4.7997498318192662E+00   -2.3775267117619547E+00
Ar    4.7317693464232962E+00   -2.2139875380357086E+01    7.7296976174747067E+00
Ar   -9.6096517268447350E+00   -2.2999505232353181E+00    2.2607539173418312E+00
Ar    6.4867532636701171E+00    3.1178445081974776E-01    5.5891634115368944E+00
Ar    1.2137535295155082E+01    8.8127426316435873E+00    2.4914283725238109E+00
Ar   -1.4314499950825949E+01   -5.2983776613579348E-01   -1.3522142896748102E+01
Ar    1.4947361563569213E+01   -2.9359501931817986E+00    2.4137827033035144E+01
Ar   -3.4948591918032657E+00   -3.3973387523706505E-01   -7.1774722304182985E+00
Ar    7.2736925655778499E+00    3.2584157661229844E+00   -4.2213172990253173E-01
Ar   -9.3987052153053252E-01   -1.7087337025363784E+01   -1.3193549105275599E+01
Ar   -9.3120416367568364E+00   -1.0213418278011844E+01   -8.9623806260343990E+00
Ar   -6.3770249376751256E+00   -4.2048263091874087E+00   -1.0937404445918084E+01
Ar    6.3767962681898593E-01    1.3813582593283607E+01    5.5390106444048417E+00
Ar    8.8807598021211067E+00    9.6219263154270855E+00    1.0949070999562456E+00
Ar   -6.2741721808151185E+00   -2.0039800434909967E+01   -7.5350851703174948E+00
Ar   -3.1629965099722146E-01    1.9894666179451487E+01    1.0546086949528547E+01
Ar    7.5621858160239963E+00   -2.5684375697247064E+00    7.2817843803100386E+00
Ar    1.4167133343481201E+01    1.2320819416915384E+01    1.2552252062355584E+00
Ar   -4.4860698096665290E+00    1.9246623906776687E+01   -1.2207282855866783E+01
Ar    1.9552557147696141E+00   -5.8661409212465232E+00    1.8886481151701604E+00
Ar    1.8860253787114328E+01    2.6640053643223842E+00    2.2556003070013118E+00
Ar    5.5137317102373773E+00   -9.8745613519447968E+00    5.6547685271511252E+00
Ar    4.4570295662057049E+00    3.6583145317691455E+00   -4.4525107637515848E+00
Ar    2.6668295489400631E+00    2.4835209001636076E+00    6.2766115174660930E+00
Ar    2.4952183710042561E+01    4.1902137093426166E+00    1.3119928437638954E+01
Ar   -1.1656976227935041E+00    4.1598650289938890E+00    6.1290186729445182E+00
     &END COORD
     &VELOCITY
          -4.1166688187671236E-05    2.3349511836068544E-05   -6.9252463385576133E-05
          -1.0356185917034070E-04    4.1826976943251430E-05   -1.1313044302965039E-05
          -4.7871051634655742E-05   -1.1619622992266766E-05   -9.9287617872033160E-05
          -2.5679985761260996E-05    4.9958960258973667E-05    1.6279389062650665E-05
           4.7521403361980579E-06   -6.1178090391427690E-05    5.1420574255014911E-05
           4.2864781250496629E-05   -1.4985246096004448E-05   -3.8087315415424583E-05
           5.0420911679032016E-06   -4.8195725174739704E-05   -1.4391696478751375E-06
           7.7236803100664249E-05    3.5504410317798765E-05    6.8576862213334916E-06
           4.0010097476709950E-05    2.8003242007832718E-05    3.3703410554826469E-05
          -7.1790937419507567E-05   -8.2362238011728146E-05   -2.7281810954303281E-05
           1.8056342653498950E-05   -1.4783873578650545E-05    6.8303735527798620E-05
           1.5219035790014608E-05   -3.5519220789124359E-05   -1.2396982626947339E-04
           5.8953672725551558E-05    3.1719310160565429E-05   -3.4798556879955453E-05
          -6.2447009046751013E-05   -6.7004841224847360E-05    4.6575698183452960E-06
           6.3956665430695906E-05   -1.0519210315103295E-04    1.1274388291544452E-04
          -3.9515279877775724E-05    2.8229968199699786E-05   -8.3404962047114108E-05
          -2.0261209280004118E-05    2.2839857360734494E-05   -4.6311693404274894E-05
           8.2608267206767881E-05    2.1909595950338845E-05   -2.7643313521166683E-05
           6.6590476924802843E-05   -1.0582298139469484E-05    5.4027057633549362E-06
           1.0753692902557116E-04   -2.0631029358409590E-05   -1.9175789045583942E-05
           8.8281479604213458E-05   -2.7900449245838278E-05    4.5422637808478578E-05
          -4.8123722893531005E-06    9.6279772764347982E-06    3.1561818427233474E-05
          -6.6574292061046073E-05   -8.0825169094297727E-05   -6.7341249293339001E-05
           8.9152512884980284E-05    5.3803357275380938E-05   -4.0667465796951149E-05
          -5.8983944572967343E-05    2.5183086724949423E-06   -1.0919630450318953E-05
          -3.2702800758357002E-05   -2.4603667635500922E-05   -7.4993647265150323E-05
          -8.6270083960926386E-05    7.7690759434023585E-05    8.6809084310244267E-05
          -6.6277893877290711E-05   -9.8887521688113204E-05   -3.7906282864480563E-05
           1.0301366417318821E-05   -1.5068990176287531E-05   -8.1049082202972852E-05
           3.4207884083592798E-05   -2.8518449003843306E-05   -1.1352615645598232E-04
          -4.1698295505209948E-05   -9.4561842794717487E-06    1.6927213100244721E-05
          -5.5955836617584768E-05    6.5060234248526288E-05    3.7847939573377263E-05
          -3.3593726398243099E-05   -7.0475226653198372E-05   -9.7407237634613828E-06
           8.5420200150770366E-05   -2.7554555508319663E-05    6.4580224560250842E-05
          -6.3176018088618202E-05   -1.5592923742150208E-05    3.3284875909433392E-05
           7.9576963364721192E-05    3.5847751707625743E-05    8.6064122703451818E-05
           5.9912708055027226E-05   -1.2675601199539147E-04   -6.5068759367175553E-05
          -8.5246964851943137E-05   -1.4601644117906639E-05   -1.5328053938518557E-04
          -6.5524969989096455E-06   -2.7896664683459398E-05    4.6367803049178770E-06
           5.4537128629369928E-05   -4.7190700618265839E-06   -2.1016027105503687E-05
          -1.2270312841072432E-04    4.1259081682554152E-05    2.8301908602735468E-05
          -1.1777894117079207E-04    6.7279384844207260E-05   -7.2691360766230026E-05
           4.0298064393122419E-05   -1.7559608156010312E-05    1.1433946880106546E-04
          -1.8357732058450965E-05   -2.4315981051846972E-05   -6.4200566406527517E-05
           3.2268645918485253E-05    1.9887040134529016E-05   -3.7128373178384673E-06
           1.0030302396856929E-04   -2.5306782656122652E-05    1.6778180072218097E-05
           1.1942155696915457E-04    1.7177003069658522E-05    2.3874222005490829E-05
           5.9686369503664663E-05   -9.7224126222337896E-05   -2.3120638626249087E-05
          -1.1422026588412128E-04    1.2148757284013773E-05   -2.4201204871182652E-05
           1.2622298570196352E-04    2.2229530527882700E-05   -2.4035712994565843E-05
           1.5668750489689323E-04   -2.0624671061923811E-05    5.6982970563661582E-05
          -7.0811212998634681E-06    1.0293083199180547E-04    7.1628264908407221E-05
          -1.4006191107457182E-04   -7.0422807308013447E-05   -7.0954361370277479E-06
          -1.0903672602239603E-05    2.7830887688708021E-05   -8.0846519006611171E-06
          -2.7554636955859389E-05    3.0184717904599617E-06   -1.0977995125535097E-04
           3.3327079586372047E-05    6.3511734652907162E-05    2.3896609602960497E-05
           6.3075683815531518E-05    7.2117986034678618E-05    1.6661917315867751E-04
           1.0169504389709192E-05   -4.4878073975280548E-06   -6.4900421537681015E-05
          -6.4922887667999109E-05    2.0000854195166045E-05   -1.3860551441692688E-05
          -5.0527313498110697E-05   -1.0738316736849733E-04    8.5108060031489896E-05
          -5.9566725225860754E-05    1.1421413990988415E-04    1.6621288833731464E-05
          -6.5714845432805511E-05   -3.9485350706583470E-05    3.2897852055410176E-05
           1.5962845190601818E-06    2.0399700463677908E-05    1.6319678013981731E-05
           3.9609236278116206E-05    1.0888442280797599E-04    8.4388837744324966E-05
          -3.8108617107994007E-05    5.0634816417453543E-05    1.4406246311830567E-04
           5.4643281773367095E-05    1.3964080718841700E-05   -1.2571499461692766E-04
           7.6034322156914681E-05   -6.8612439531816135E-05   -1.2466792714381633E-04
           3.2856335921931905E-05    4.9535423562784387E-05    3.8772376305968483E-05
          -4.3364801480900541E-05   -7.1392844935642811E-05   -1.5946492852222093E-05
           3.3097390175898730E-05    8.5074878487473147E-05   -1.0576335503977855E-04
          -7.7278165502490633E-05    7.3730513813303483E-05    4.3689291992501150E-05
           2.7194187499731464E-05   -5.0241855964363945E-05    6.4452525977147198E-05
          -5.6539068407525359E-06   -7.2629681493453072E-05    1.1677274881547522E-04
           2.8107382193180607E-06   -4.5492694879056118E-06    3.9601093565634179E-05
          -4.5383362947637713E-06   -3.4915071298585010E-05   -2.3082943284768909E-05
           6.2171028710512779E-05    1.1658290714002766E-04   -5.1382790821528302E-05
          -1.0461581020052598E-05    1.0066030850250215E-04    5.5237999986467153E-06
          -6.8269995660988152E-05   -2.3237461849595686E-06   -5.9430341761640466E-06
           9.0897925941462956E-05    8.6401082508109830E-05    8.5536356605264702E-05
          -1.4358088794822068E-04    5.3569674736838215E-05   -1.6375902840687623E-05
           3.7422791391990828E-05   -3.5275454486104469E-05    1.2051630001134821E-05
           1.7658068912838587E-05    3.2814672401815658E-05    7.2372248991435588E-05
          -1.1487460616370537E-04   -8.5692827192768267E-05   -3.4274490383177773E-06
          -6.8416404955119083E-05    5.5591884634256585E-05    3.2602045359957954E-05
          -2.8463553349131895E-05   -6.5426985587569437E-05    7.5719547644340735E-05
          -3.1254125775470099E-05   -4.5201067854159394E-05   -3.4704368506188297E-05
          -5.6372724316708804E-06    8.5236968533216744E-05    5.1866071734830784E-05
           2.1145308264444581E-05    2.0536433805002521E-05    3.3282256771093331E-05
           6.1272517779377973E-05    1.7683114150411461E-05    7.9556617122616188E-05
           1.3021014700285474E-06    2.2472974769557339E-05    3.5477270179469982E-05
          -1.2630969961260411E-04   -1.3569239668600133E-05   -9.1092126294387926E-06
           6.0910572875673858E-05    1.0866818279597758E-05    8.7487155355740244E-07
          -2.8677128076897246E-06    9.7676464578591436E-05   -1.5290173647208731E-05
           4.6345770764629100E-05   -3.3653232185200860E-05    3.5870039593418137E-05
           7.0168621352535474E-05    5.9461834939914072E-06   -1.0849010253740650E-05
          -1.6520568475624854E-05   -9.6756267060532265E-05    1.6000450904108849E-06
           3.2965763222713138E-05    5.4829001234089145E-05   -3.4481939196394807E-05
          -6.8571971663375673E-05    3.1447706568989724E-05   -3.2602346472921605E-05
           6.8965200557469586E-05   -2.9654116191463942E-05    2.7210918178101904E-05
           6.8371083445929962E-05    4.9969290098469087E-05    2.0342482197929461E-06
          -1.0023748966685758E-04   -5.4564906282828421E-05   -2.7209049567177741E-05
           3.5445762378197549E-05   -4.6128833265315386E-05    1.9147176473716935E-06
           7.0963159929921877E-05   -5.6080776719672004E-05    6.7751351626810862E-05
          -1.7108743740645437E-04   -1.4671786338562307E-04   -1.0477272445315350E-05
           3.8483428132720428E-05   -2.9291491582316802E-05   -4.3827275178657119E-06
           5.7147517353329190E-05    5.7850055057426824E-06    2.5077266821932222E-05
           1.5474740291582949E-05    1.1335902528004658E-04   -8.7290250954697858E-05
          -1.1602042938350634E-05    1.9249811132079741E-05   -1.2607226716933925E-04
     &END VELOCITY
     &TOPOLOGY
       NUMBER_OF_ATOMS  108
       MULTIPLE_UNIT_CELL  1 1 1
     &END TOPOLOGY
   &END SUBSYS
 &END FORCE_EVAL
